output ([(((("\n"++problem_name)++"\n")++"L:")++show(L))++"\n"]++[if problem[i,j]==0 then "*" else show(letters[fix(L[problem[i,j]])]) endif++if j==cols then "\n" else "" endif | i in 1..rows, j in 1..cols, ])++["\n"];
int: rows = 7;
int: cols = 7;
array [1..rows,1..cols] of int: problem = [|0,0,1,2,3,0,0|0,4,5,6,7,8,0|9,10,11,0,12,13,14|15,16,17,18,19,20,21|22,23,24,0,25,26,27|0,28,29,30,31,32,0|0,0,33,34,35,0,0|];
int: num_letters = 26;
array [1..num_letters] of string: letters = ["a","b","c","d","e","f","g","h","i","j","k","l","m","n","o","p","q","r","s","t","u","v","w","x","y","z"];
int: N = 35;
array [0..N] of int: L;
string: problem_name = "puzzle09, 7 x 7";
